WARNING: for repeatability, setting FPU to use double precision
============================[ Problem Statistics ]=============================
|                                                                             |
|  Number of variables:        248675                                         |
|  Number of clauses:          799427                                         |
|  Parse time:                   0.19 s                                       |
|                                                                             |
c ============================[ Search Statistics ]==============================
c | Conflicts |          ORIGINAL         |          LEARNT          | Progress |
c |           |    Vars  Clauses Literals |    Limit  Clauses Lit/Cl |          |
c ===============================================================================
c Switched to VSIDS.
c Switched to LRB.
c Switched to VSIDS.
c Switched to LRB.
c Switched to VSIDS.
c Switched to LRB.
c Switched to VSIDS.
c Switched to LRB.
c ===============================================================================
restarts                  : 463
conflicts                 : 104855         (1070 /sec)
decisions                 : 216784036      (0.00 % random) (2212744 /sec)
propagations              : 596482562      (6088377 /sec)
conflict literals         : 6265543        (7.31 % deleted)

conflicts w/ DIP found    : 85022          (81.09 % of conflicts)
conflicts w/ dangerous DIP: 0              (0.00 % of conflicts)
conflicts w/ DIP-learning : 6              (0.01 % of conflicts)
decisions on ext vars     : 219            (0.00 % of decisions)
total ext vars            : 1           
tried delete ext vars     : 0           
deleted ext vars          : 0           
max ext vars              : 1           

Memory used               : 185.00 MB
CPU time                  : 97.9707 s
DIP computation time      : 0.886912 s (0.91 % of total time)
ER_sel time               : 0.134929 s
ER_add time               : 3e-05 s
ER_delC time              : 0 s
ER_delV time              : 0 s
ER_sub time               : 0.16611 s
ER_stat time              : 0 s

SATISFIABLE
